example/model.mps
* model.mps
NAME
ROWS
 N  R0
 L  R1
 L  R2
 L  R3
COLUMNS
    x         R0        143.00000000   R1        120.00000000
    x         R2        110.00000000   R3        1.0000000000
    y         R0        60.00000000    R1        210.00000000
    y         R2        30.000000000   R3        1.0000000000
RHS
    RHS       R1        15000.000000   R2        4000.0000000
    RHS       R3        75.000000000
ENDATA
